20
1 7125 11300
2 7225 11050
3 7225 11150
4 7375 11300
5 7500 11200
6 7625 11275
7 7725 11275
8 7825 11275
9 7925 11275
10 8050 11225
11 8050 11125
12 8150 11125
13 8275 11300
14 8400 11300
15 8525 11300
16 8650 11300
17 8750 11200
18 12475 10800
19 12075 10800
20 11975 10975